(set-info :smt-lib-version 2.6)
(set-logic UF)
(set-info :source |Benchmarks from the paper: "Extending Sledgehammer with SMT Solvers" by Jasmin Blanchette, Sascha Bohme, and Lawrence C. Paulson, CADE 2011.  Translated to SMT2 by Andrew Reynolds and Morgan Deters.|)
(set-info :category "industrial")
(set-info :status unknown)
(declare-sort S1 0)
(declare-sort S2 0)
(declare-sort S3 0)
(declare-sort S4 0)
(declare-sort S5 0)
(declare-sort S6 0)
(declare-sort S7 0)
(declare-sort S8 0)
(declare-sort S9 0)
(declare-sort S10 0)
(declare-sort S11 0)
(declare-sort S12 0)
(declare-sort S13 0)
(declare-sort S14 0)
(declare-fun f1 () S1)
(declare-fun f2 () S1)
(declare-fun f3 (S2 S3) S1)
(declare-fun f4 (S4 S4 S5) S2)
(declare-fun f5 () S4)
(declare-fun f6 () S4)
(declare-fun f7 (S6 S5) S5)
(declare-fun f8 (S7 S8) S6)
(declare-fun f9 () S7)
(declare-fun f10 () S8)
(declare-fun f11 (S9 S5) S6)
(declare-fun f12 () S9)
(declare-fun f13 (S10 S8) S5)
(declare-fun f14 () S10)
(declare-fun f15 () S8)
(declare-fun f16 (S11) S3)
(declare-fun f17 () S11)
(declare-fun f18 () S4)
(declare-fun f19 (S5 S12) S1)
(declare-fun f20 () S10)
(declare-fun f21 (S11) S12)
(declare-fun f22 () S11)
(declare-fun f23 (S8 S13) S1)
(declare-fun f24 () S13)
(declare-fun f25 (S12 S5) S1)
(declare-fun f26 (S12) S12)
(declare-fun f27 (S12) S12)
(declare-fun f28 (S4 S5) S2)
(declare-fun f29 (S14 S4) S8)
(declare-fun f30 () S14)
(assert (not (= f1 f2)))
(assert (let ((?v_0 (f13 f14 f15))) (not (= (f3 (f4 f5 f6 (f7 (f8 f9 f10) (f7 (f11 f12 ?v_0) ?v_0))) (f16 f17)) f1))))
(assert (not (= f5 f18)))
(assert (not (= (f19 (f13 f20 f10) (f21 f22)) f1)))
(assert (= (f23 f10 f24) f1))
(assert (forall ((?v0 S5) (?v1 S5) (?v2 S11)) (let ((?v_0 (f21 ?v2))) (=> (= (f19 (f7 (f11 f12 ?v0) ?v1) ?v_0) f1) (=> (=> (= (f19 ?v0 ?v_0) f1) (=> (= (f19 ?v1 ?v_0) f1) false)) false)))))
(assert (forall ((?v0 S8)) (not (= (f19 (f13 f14 ?v0) (f21 f22)) f1))))
(assert (forall ((?v0 S8) (?v1 S5)) (not (= (f19 (f7 (f8 f9 ?v0) ?v1) (f21 f22)) f1))))
(assert (forall ((?v0 S4) (?v1 S4) (?v2 S5) (?v3 S11)) (=> (= (f3 (f4 ?v0 ?v1 ?v2) (f16 ?v3)) f1) (= (f19 ?v2 (f21 ?v3)) f1))))
(assert (forall ((?v0 S5) (?v1 S5) (?v2 S11)) (let ((?v_0 (f21 ?v2))) (=> (= (f19 (f7 (f11 f12 ?v0) ?v1) ?v_0) f1) (and (= (f19 ?v0 ?v_0) f1) (= (f19 ?v1 ?v_0) f1))))))
(assert (forall ((?v0 S8) (?v1 S8) (?v2 S5)) (not (= (f13 f14 ?v0) (f7 (f8 f9 ?v1) ?v2)))))
(assert (forall ((?v0 S8) (?v1 S5) (?v2 S8)) (not (= (f7 (f8 f9 ?v0) ?v1) (f13 f14 ?v2)))))
(assert (forall ((?v0 S8) (?v1 S5) (?v2 S5)) (not (= (f13 f14 ?v0) (f7 (f11 f12 ?v1) ?v2)))))
(assert (forall ((?v0 S5) (?v1 S5) (?v2 S8)) (not (= (f7 (f11 f12 ?v0) ?v1) (f13 f14 ?v2)))))
(assert (forall ((?v0 S8) (?v1 S8)) (not (= (f13 f20 ?v0) (f13 f14 ?v1)))))
(assert (forall ((?v0 S8) (?v1 S8)) (not (= (f13 f14 ?v0) (f13 f20 ?v1)))))
(assert (forall ((?v0 S8) (?v1 S5) (?v2 S5) (?v3 S5)) (not (= (f7 (f8 f9 ?v0) ?v1) (f7 (f11 f12 ?v2) ?v3)))))
(assert (forall ((?v0 S8) (?v1 S8)) (= (= (f13 f20 ?v0) (f13 f20 ?v1)) (= ?v0 ?v1))))
(assert (forall ((?v0 S5) (?v1 S5) (?v2 S5) (?v3 S5)) (= (= (f7 (f11 f12 ?v0) ?v1) (f7 (f11 f12 ?v2) ?v3)) (and (= ?v0 ?v2) (= ?v1 ?v3)))))
(assert (forall ((?v0 S8) (?v1 S5) (?v2 S8) (?v3 S5)) (= (= (f7 (f8 f9 ?v0) ?v1) (f7 (f8 f9 ?v2) ?v3)) (and (= ?v0 ?v2) (= ?v1 ?v3)))))
(assert (forall ((?v0 S8) (?v1 S8)) (= (= (f13 f14 ?v0) (f13 f14 ?v1)) (= ?v0 ?v1))))
(assert (forall ((?v0 S4) (?v1 S4) (?v2 S5) (?v3 S4) (?v4 S4) (?v5 S5)) (= (= (f4 ?v0 ?v1 ?v2) (f4 ?v3 ?v4 ?v5)) (and (= ?v0 ?v3) (and (= ?v1 ?v4) (= ?v2 ?v5))))))
(assert (forall ((?v0 S8) (?v1 S8)) (=> (not (= (= (f23 ?v0 f24) f1) (= (f23 ?v1 f24) f1))) (not (= ?v0 ?v1)))))
(assert (forall ((?v0 S5) (?v1 S5) (?v2 S8)) (not (= (f7 (f11 f12 ?v0) ?v1) (f13 f20 ?v2)))))
(assert (forall ((?v0 S8) (?v1 S5) (?v2 S5)) (not (= (f13 f20 ?v0) (f7 (f11 f12 ?v1) ?v2)))))
(assert (forall ((?v0 S8) (?v1 S5) (?v2 S8)) (not (= (f7 (f8 f9 ?v0) ?v1) (f13 f20 ?v2)))))
(assert (forall ((?v0 S8) (?v1 S8) (?v2 S5)) (not (= (f13 f20 ?v0) (f7 (f8 f9 ?v1) ?v2)))))
(assert (forall ((?v0 S5) (?v1 S5) (?v2 S8) (?v3 S5)) (not (= (f7 (f11 f12 ?v0) ?v1) (f7 (f8 f9 ?v2) ?v3)))))
(assert (forall ((?v0 S11)) (exists ((?v1 S8)) (not (= (f19 (f13 f14 ?v1) (f21 ?v0)) f1)))))
(assert (forall ((?v0 S12) (?v1 S5) (?v2 S8)) (let ((?v_0 (f26 ?v0))) (=> (= (f25 ?v_0 ?v1) f1) (=> (= (f25 ?v0 (f13 f20 ?v2)) f1) (= (f25 ?v_0 (f7 (f8 f9 ?v2) ?v1)) f1))))))
(assert (forall ((?v0 S8) (?v1 S5) (?v2 S12)) (let ((?v_0 (f27 ?v2))) (=> (= (f19 (f7 (f8 f9 ?v0) ?v1) ?v_0) f1) (=> (= (f23 ?v0 f24) f1) (=> (= (f19 (f13 f20 ?v0) ?v_0) f1) (= (f19 ?v1 ?v_0) f1)))))))
(assert (forall ((?v0 S4) (?v1 S5) (?v2 S11)) (=> (= (f3 (f28 ?v0 ?v1) (f16 ?v2)) f1) (= (f19 ?v1 (f21 ?v2)) f1))))
(assert (forall ((?v0 S4) (?v1 S11)) (= (f19 (f13 f20 (f29 f30 ?v0)) (f21 ?v1)) f1)))
(check-sat)
(exit)
